Set parameter TSPort to value 51199
Set parameter TokenServer to value "open-license1.lanl.gov"
Set parameter TimeLimit to value 64
Set parameter Threads to value 1
Gurobi Optimizer version 10.0.3 build v10.0.3rc0 (linux64)

CPU model: Intel(R) Xeon(R) CPU E5-2695 v4 @ 2.10GHz, instruction set [SSE2|AVX|AVX2]
Thread count: 36 physical cores, 72 logical processors, using up to 1 threads

Optimize a model with 0 rows, 598 columns and 0 nonzeros
Model fingerprint: 0x4cad9756
Model has 2577 quadratic objective terms
Variable types: 0 continuous, 598 integer (598 binary)
Coefficient statistics:
  Matrix range     [0e+00, 0e+00]
  Objective range  [2e+00, 3e+01]
  QObjective range [8e+00, 8e+00]
  Bounds range     [1e+00, 1e+00]
  RHS range        [0e+00, 0e+00]
Found heuristic solution: objective 0.0000000
Found heuristic solution: objective -1006.000000
Found heuristic solution: objective -3518.000000
Found heuristic solution: objective -3528.000000
Presolve time: 0.22s
Presolved: 2577 rows, 3175 columns, 7731 nonzeros
Variable types: 0 continuous, 3175 integer (3175 binary)

Root relaxation: objective -4.815000e+03, 723 iterations, 0.01 seconds (0.01 work units)

    Nodes    |    Current Node    |     Objective Bounds      |     Work
 Expl Unexpl |  Obj  Depth IntInf | Incumbent    BestBd   Gap | It/Node Time

     0     0 -4815.0000    0  598 -3528.0000 -4815.0000  36.5%     -    0s
     0     0 -4384.5000    0  833 -3528.0000 -4384.5000  24.3%     -    0s
     0     0 -4381.5000    0  833 -3528.0000 -4381.5000  24.2%     -    0s
     0     0 -4292.3333    0  918 -3528.0000 -4292.3333  21.7%     -    0s
     0     0 -4292.3333    0  899 -3528.0000 -4292.3333  21.7%     -    0s
     0     2 -4292.0000    0  888 -3528.0000 -4292.0000  21.7%     -    1s
   513   498 -3711.1667   90  598 -3528.0000 -4280.5000  21.3%  79.9    5s
   530   510 -3946.0330   35 1723 -3528.0000 -3946.0330  11.8%  77.3   10s
   541   517 -3883.0753   51 2046 -3528.0000 -3883.0753  10.1%  75.8   15s
   549   522 -3846.6504   45 2244 -3528.0000 -3846.6504  9.03%  74.7   20s
   557   528 -3667.6667   95 2583 -3528.0000 -3816.8463  8.19%  73.6   27s
   561   530 -3788.6667   68 2640 -3528.0000 -3811.8270  8.04%  73.1   30s
   567   534 -3649.8333   99 2682 -3528.0000 -3796.7182  7.62%  72.3   35s
   573   538 -3617.0000  115 2685 -3528.0000 -3787.3724  7.35%  71.5   40s
   581   544 -3781.0960   31 2709 -3528.0000 -3781.0960  7.17%  70.5   45s
   590   550 -3748.1667   82 2769 -3528.0000 -3775.8704  7.03%  69.5   50s
   601   557 -3656.8333   97 2755 -3528.0000 -3769.8483  6.86%  68.2   55s
   613   565 -3711.1667   90 2777 -3528.0000 -3764.0288  6.69%  66.9   61s

Cutting planes:
  Gomory: 36
  MIR: 110
  Flow cover: 886
  Zero half: 489
  Mod-K: 3
  RLT: 112
  BQP: 167

Explored 620 nodes (182488 simplex iterations) in 64.00 seconds (67.36 work units)
Thread count was 1 (of 72 available processors)

Solution count 4: -3528 -3518 -1006 0 

Time limit reached
Best objective -3.528000000000e+03, best bound -3.760000000000e+03, gap 6.5760%

User-callback calls 4160, time in user-callback 0.02 sec

BQP_SOLUTION, 598, 2577, -1290.000000, 64.000553, 1, 1, -1, 1, -1, 1, 1, -1, 1, 1, -1, 1, 1, 1, -1, 1, 1, -1, 1, 1, 1, 1, 1, -1, 1, -1, 1, 1, -1, 1, -1, 1, 1, -1, -1, 1, 1, 1, -1, 1, -1, 1, 1, -1, 1, -1, 1, 1, -1, 1, -1, 1, 1, -1, 1, -1, 1, 1, 1, -1, -1, 1, 1, 1, -1, 1, 1, 1, -1, 1, -1, 1, -1, 1, -1, 1, 1, 1, 1, -1, -1, -1, 1, 1, -1, -1, 1, 1, 1, -1, 1, -1, -1, 1, -1, 1, -1, 1, 1, -1, 1, -1, -1, 1, 1, 1, -1, -1, 1, -1, 1, -1, -1, 1, -1, 1, -1, -1, 1, -1, 1, -1, -1, 1, -1, -1, -1, -1, 1, 1, -1, -1, -1, -1, 1, 1, 1, 1, -1, 1, 1, -1, -1, -1, 1, 1, 1, 1, -1, 1, 1, -1, -1, -1, 1, -1, -1, 1, -1, 1, -1, -1, 1, 1, -1, -1, 1, 1, 1, 1, -1, 1, -1, 1, 1, 1, 1, 1, 1, 1, -1, 1, -1, 1, 1, 1, -1, -1, 1, -1, 1, 1, -1, 1, -1, -1, 1, -1, 1, -1, 1, 1, -1, 1, -1, 1, 1, -1, 1, -1, 1, 1, -1, 1, -1, 1, 1, -1, 1, 1, -1, 1, 1, -1, 1, -1, 1, 1, 1, 1, 1, 1, 1, -1, -1, -1, 1, 1, 1, -1, 1, 1, -1, 1, 1, 1, 1, -1, 1, 1, 1, -1, 1, 1, 1, 1, 1, -1, 1, 1, -1, 1, -1, 1, -1, -1, 1, -1, 1, -1, 1, -1, 1, 1, -1, -1, 1, -1, -1, 1, -1, 1, 1, 1, -1, 1, -1, 1, 1, -1, -1, 1, -1, 1, 1, -1, 1, 1, 1, 1, -1, 1, 1, 1, 1, -1, 1, -1, 1, 1, -1, 1, 1, 1, 1, -1, 1, -1, 1, 1, -1, -1, 1, 1, -1, -1, 1, 1, -1, -1, -1, 1, 1, -1, 1, -1, 1, -1, 1, -1, 1, 1, 1, -1, -1, 1, 1, 1, -1, -1, 1, -1, -1, -1, 1, 1, -1, 1, 1, 1, 1, 1, 1, -1, 1, 1, -1, 1, -1, 1, -1, 1, 1, -1, 1, 1, -1, 1, -1, 1, 1, -1, 1, -1, 1, 1, -1, 1, -1, 1, -1, -1, 1, -1, 1, 1, -1, 1, -1, -1, 1, -1, 1, -1, 1, 1, -1, 1, -1, -1, 1, -1, -1, 1, -1, 1, 1, -1, -1, 1, -1, -1, -1, -1, 1, -1, -1, 1, -1, 1, -1, -1, -1, -1, 1, -1, -1, 1, -1, 1, 1, -1, 1, -1, 1, -1, -1, -1, 1, -1, 1, -1, 1, -1, 1, -1, -1, -1, -1, -1, 1, -1, -1, 1, -1, 1, -1, 1, 1, -1, 1, -1, -1, 1, 1, 1, 1, 1, 1, -1, 1, 1, -1, -1, 1, -1, -1, 1, 1, 1, 1, 1, 1, -1, -1, 1, -1, 1, 1, -1, 1, 1, 1, 1, -1, 1, 1, -1, 1, -1, 1, 1, -1, 1, -1, 1, 1, -1, -1, -1, -1, 1, 1, 1, -1, 1, 1, -1, -1, 1, -1, 1, 1, -1, -1, 1, -1, -1, -1, 1, -1, -1, -1, 1, 1, 1, 1, 1, 1, -1, -1, -1, 1, 1, 1, -1, -1, -1, -1, 1, -1, -1, -1, -1, 1, -1, 1, -1, -1, 1, -1, -1, -1, 1, 1, -1, 1, 1, -1, -1, -1, 1, -1, 1, 1, -1, -1, 1, 1, 1, -1, -1, 1, 1, -1, 1, -1, -1
BQP_DATA, 598, 2577, -1290.000000, -1522.000000, -3528.000000, -3760.000000, 64.000553, 1524, 620
